c Result of efficient AIG-to-CNF conversion using package CNF
c Fulladder CNF
c inputs: 5,6,7
c outputs: 3 sum, 2 carry
p cnf 6 17
-2 5 7 0
-2 6 7 0
-2 5 6 0
2 -5 -6 0
2 -6 -7 0
2 -5 -7 0
-3 7 4 0
-3 -7 -4 0
3 -7 4 0
3 7 -4 0
-4 -5 -6 0
-4 5 6 0
4 5 -6 0
4 -5 6 0
-8 0
2 0
3 0

